50 1225
1 2 374
1 3 401
1 4 484
1 5 378
1 6 574
1 7 566
1 8 753
1 9 158
1 10 464
1 11 310
1 12 404
1 13 647
1 14 329
1 15 156
1 16 58
1 17 179
1 18 303
1 19 606
1 20 657
1 21 463
1 22 539
1 23 315
1 24 886
1 25 704
1 26 461
1 27 855
1 28 323
1 29 632
1 30 487
1 31 811
1 32 453
1 33 809
1 34 107
1 35 558
1 36 97
1 37 76
1 38 537
1 39 689
1 40 126
1 41 535
1 42 265
1 43 589
1 44 320
1 45 607
1 46 284
1 47 689
1 48 597
1 49 264
1 50 343
2 3 240
2 4 570
2 5 585
2 6 810
2 7 748
2 8 512
2 9 239
2 10 91
2 11 258
2 12 719
2 13 277
2 14 342
2 15 218
2 16 331
2 17 205
2 18 277
2 19 268
2 20 437
2 21 110
2 22 166
2 23 603
2 24 710
2 25 354
2 26 705
2 27 683
2 28 391
2 29 372
2 30 336
2 31 438
2 32 731
2 33 579
2 34 348
2 35 303
2 36 412
2 37 362
2 38 402
2 39 328
2 40 335
2 41 373
2 42 615
2 43 558
2 44 627
2 45 565
2 46 578
2 47 553
2 48 271
2 49 339
2 50 481
3 4 760
3 5 728
3 6 947
3 7 909
3 8 747
3 9 247
3 10 254
3 11 458
3 12 803
3 13 436
3 14 156
3 15 281
3 16 342
3 17 244
3 18 119
3 19 264
3 20 676
3 21 208
3 22 296
3 23 703
3 24 950
3 25 544
3 26 834
3 27 923
3 28 571
3 29 607
3 30 571
3 31 514
3 32 841
3 33 815
3 34 315
3 35 542
3 36 380
3 37 345
3 38 638
3 39 504
3 40 294
3 41 611
3 42 666
3 43 780
3 44 715
3 45 790
3 46 673
3 47 792
3 48 489
3 49 507
3 50 308
4 5 181
4 6 316
4 7 210
4 8 529
4 9 552
4 10 640
4 11 312
4 12 399
4 13 713
4 14 766
4 15 498
4 16 518
4 17 534
4 18 716
4 19 830
4 20 447
4 21 677
4 22 694
4 23 314
4 24 536
4 25 687
4 26 266
4 27 509
4 28 189
4 29 492
4 30 322
4 31 917
4 32 333
4 33 549
4 34 579
4 35 459
4 36 581
4 37 556
4 38 300
4 39 706
4 40 592
4 41 335
4 42 445
4 43 180
4 44 353
4 45 200
4 46 323
4 47 354
4 48 577
4 49 255
4 50 822
5 6 225
5 7 188
5 8 680
5 9 490
5 10 669
5 11 343
5 12 221
5 13 785
5 14 696
5 15 447
5 16 426
5 17 485
5 18 657
5 19 854
5 20 589
5 21 695
5 22 735
5 23 134
5 24 713
5 25 785
5 26 124
5 27 685
5 28 213
5 29 616
5 30 434
5 31 985
5 32 173
5 33 709
5 34 484
5 35 566
5 36 466
5 37 455
5 38 435
5 39 794
5 40 501
5 41 463
5 42 271
5 43 357
5 44 172
5 45 377
5 46 149
5 47 523
5 48 669
5 49 248
5 50 721
6 7 120
6 8 845
6 9 704
6 10 893
6 11 565
6 12 232
6 13 1002
6 14 902
6 15 665
6 16 628
6 17 703
6 18 869
6 19 1079
6 20 764
6 21 920
6 22 958
6 23 263
6 24 827
6 25 991
6 26 113
6 27 803
6 28 430
6 29 806
6 30 629
6 31 1204
6 32 140
6 33 862
6 34 682
6 35 766
6 36 650
6 37 650
6 38 615
6 39 1005
6 40 701
6 41 649
6 42 377
6 43 484
6 44 273
6 45 502
6 46 294
6 47 661
6 48 877
6 49 472
6 50 905
7 8 732
7 9 676
7 10 826
7 11 493
7 12 303
7 13 917
7 14 884
7 15 631
7 16 615
7 17 669
7 18 844
7 19 1015
7 20 655
7 21 858
7 22 887
7 23 285
7 24 707
7 25 896
7 26 146
7 27 682
7 28 358
7 29 703
7 30 532
7 31 1121
7 32 211
7 33 746
7 34 673
7 35 669
7 36 653
7 37 643
7 38 510
7 39 914
7 40 690
7 41 546
7 42 419
7 43 367
7 44 310
7 45 384
7 46 311
7 47 544
7 48 785
7 49 411
7 50 908
8 9 695
8 10 501
8 11 445
8 12 896
8 13 402
8 14 852
8 15 645
8 16 743
8 17 659
8 18 786
8 19 634
8 20 98
8 21 553
8 22 494
8 23 785
8 24 225
8 25 299
8 26 790
8 27 207
8 28 499
8 29 140
8 30 272
8 31 563
8 32 851
8 33 68
8 34 789
8 35 211
8 36 834
8 37 787
8 38 246
8 39 346
8 40 786
8 41 228
8 42 880
8 43 368
8 44 824
8 45 354
8 46 779
8 47 203
8 48 272
8 49 521
8 50 979
9 10 322
9 11 291
9 12 556
9 13 516
9 14 214
9 15 57
9 16 103
9 17 37
9 18 167
9 19 450
9 20 605
9 21 313
9 22 396
9 23 456
9 24 860
9 25 590
9 26 591
9 27 830
9 28 366
9 29 561
9 30 453
9 31 665
9 32 594
9 33 758
9 34 108
9 35 486
9 36 173
9 37 124
9 38 514
9 39 567
9 40 96
9 41 501
9 42 423
9 43 614
9 44 467
9 45 628
9 46 426
9 47 674
9 48 495
9 49 299
9 50 295
10 11 332
10 12 809
10 13 199
10 14 386
10 15 307
10 16 419
10 17 290
10 18 325
10 19 190
10 20 440
10 21 52
10 22 75
10 23 693
10 24 713
10 25 294
10 26 790
10 27 688
10 28 468
10 29 363
10 30 373
10 31 347
10 32 819
10 33 569
10 34 429
10 35 306
10 36 496
10 37 447
10 38 437
10 39 259
10 40 415
10 41 402
10 42 707
10 43 606
10 44 717
10 45 611
10 46 668
10 47 575
10 48 236
10 49 421
10 50 534
11 12 516
11 13 443
11 14 493
11 15 233
11 16 309
11 17 261
11 18 434
11 19 522
11 20 348
11 21 366
11 22 394
11 23 396
11 24 579
11 25 457
11 26 468
11 27 549
11 28 135
11 29 333
11 30 177
11 31 642
11 32 506
11 33 499
11 34 362
11 35 264
11 36 397
11 37 353
11 38 229
11 39 459
11 40 365
11 41 225
11 42 456
11 43 328
11 44 429
11 45 340
11 46 379
11 47 387
11 48 340
11 49 101
11 50 585
12 13 955
12 14 729
12 15 532
12 16 463
12 17 565
12 18 708
12 19 980
12 20 803
12 21 825
12 22 882
12 23 120
12 24 934
12 25 973
12 26 159
12 27 907
12 28 407
12 29 822
12 30 640
12 31 1147
12 32 94
12 33 929
12 34 506
12 35 765
12 36 460
12 37 472
12 38 650
12 39 975
12 40 527
12 41 674
12 42 158
12 43 577
12 44 91
12 45 598
12 46 141
12 47 745
12 48 856
12 49 415
12 50 706
13 14 580
13 15 493
13 16 607
13 17 482
13 18 521
13 19 242
13 20 378
13 21 231
13 22 139
13 23 836
13 24 627
13 25 119
13 26 910
13 27 609
13 28 573
13 29 292
13 30 398
13 31 204
13 32 949
13 33 466
13 34 625
13 35 275
13 36 689
13 37 640
13 38 445
13 39 71
13 40 611
13 41 405
13 42 872
13 43 628
13 44 866
13 45 627
13 46 815
13 47 541
13 48 151
13 49 544
13 50 730
14 15 268
14 16 273
14 17 234
14 18 65
14 19 420
14 20 771
14 21 349
14 22 441
14 23 644
14 24 1038
14 25 681
14 26 788
14 27 1010
14 28 580
14 29 712
14 30 639
14 31 671
14 32 782
14 33 918
14 34 223
14 35 640
14 36 274
14 37 256
14 38 704
14 39 645
14 40 203
14 41 685
14 42 579
14 43 821
14 44 648
14 45 834
14 46 613
14 47 864
14 48 611
14 49 513
14 50 152
15 16 114
15 17 37
15 18 217
15 19 455
15 20 553
15 21 307
15 22 383
15 23 426
15 24 805
15 25 558
15 26 553
15 27 776
15 28 312
15 29 514
15 30 398
15 31 654
15 32 562
15 33 706
15 34 145
15 35 439
15 36 201
15 37 150
15 38 458
15 39 539
15 40 140
15 41 447
15 42 409
15 43 556
15 44 441
15 45 571
15 46 397
15 47 618
15 48 457
15 49 244
15 50 352
16 17 128
16 18 245
16 19 553
16 20 649
16 21 413
16 22 494
16 23 371
16 24 888
16 25 672
16 26 515
16 27 858
16 28 346
16 29 617
16 30 484
16 31 764
16 32 510
16 33 802
16 34 61
16 35 542
16 36 91
16 37 44
16 38 538
16 39 653
16 40 75
16 41 533
16 42 323
16 43 608
16 44 378
16 45 625
16 46 340
16 47 695
16 48 569
16 49 282
16 50 303
17 18 181
17 19 427
17 20 569
17 21 285
17 22 365
17 23 461
17 24 826
17 25 554
17 26 590
17 27 796
17 28 347
17 29 524
17 30 420
17 31 635
17 32 598
17 33 721
17 34 143
17 35 449
17 36 206
17 37 157
17 38 482
17 39 531
17 40 133
17 41 467
17 42 439
17 43 587
17 44 475
17 45 601
17 46 432
17 47 642
17 48 457
17 49 280
17 50 328
18 19 377
18 20 706
18 21 291
18 22 383
18 23 616
18 24 974
18 25 619
18 26 755
18 27 946
18 28 528
18 29 647
18 30 576
18 31 623
18 32 755
18 33 853
18 34 206
18 35 575
18 36 267
18 37 239
18 38 641
18 39 585
18 40 185
18 41 621
18 42 564
18 43 763
18 44 623
18 45 775
18 46 585
18 47 801
18 48 547
18 49 461
18 50 209
19 20 592
19 21 158
19 22 148
19 23 867
19 24 856
19 25 361
19 26 974
19 27 835
19 28 657
19 29 508
19 30 555
19 31 253
19 32 997
19 33 700
19 34 545
19 35 466
19 36 613
19 37 570
19 38 616
19 39 312
19 40 526
19 41 579
19 42 864
19 43 791
19 44 888
19 45 794
19 46 841
19 47 743
19 48 363
19 49 607
19 50 572
20 21 492
20 22 446
20 23 691
20 24 274
20 25 296
20 26 702
20 27 248
20 28 403
20 29 85
20 30 174
20 31 561
20 32 761
20 33 153
20 34 696
20 35 134
20 36 739
20 37 693
20 38 153
20 39 335
20 40 694
20 41 131
20 42 782
20 43 300
20 44 729
20 45 290
20 46 683
20 47 166
20 48 231
20 49 423
20 50 893
21 22 92
21 23 710
21 24 765
21 25 335
21 26 815
21 27 740
21 28 500
21 29 415
21 30 421
21 31 352
21 32 840
21 33 621
21 34 417
21 35 358
21 36 484
21 37 438
21 38 486
21 39 296
21 40 400
21 41 452
21 42 714
21 43 652
21 44 733
21 45 657
21 46 685
21 47 626
21 48 286
21 49 449
21 50 499
22 23 765
22 24 714
22 25 250
22 26 858
22 27 691
22 28 530
22 29 363
22 30 408
22 31 271
22 32 888
22 33 562
22 34 503
22 35 318
22 36 569
22 37 521
22 38 468
22 39 207
22 40 487
22 41 431
22 42 782
22 43 645
22 44 790
22 45 647
22 46 741
22 47 594
22 48 222
22 49 487
22 50 592
23 24 839
23 25 853
23 26 152
23 27 810
23 28 290
23 29 706
23 30 524
23 31 1028
23 32 138
23 33 821
23 34 421
23 35 647
23 36 387
23 37 389
23 38 538
23 39 855
23 40 441
23 41 560
23 42 139
23 43 485
23 44 40
23 45 505
23 46 31
23 47 644
23 48 736
23 49 295
23 50 642
24 25 523
24 26 801
24 27 30
24 28 584
24 29 351
24 30 406
24 31 783
24 32 870
24 33 165
24 34 941
24 35 408
24 36 976
24 37 933
24 38 350
24 39 571
24 40 943
24 41 358
24 42 955
24 43 357
24 44 879
24 45 336
24 46 841
24 47 200
24 48 493
24 49 627
24 50 1153
25 26 908
25 27 506
25 28 572
25 29 215
25 30 364
25 31 266
25 32 955
25 33 358
25 34 698
25 35 228
25 36 758
25 37 708
25 38 397
25 39 50
25 40 687
25 41 357
25 42 907
25 43 576
25 44 886
25 45 570
25 46 836
25 47 462
25 48 117
25 49 557
25 50 828
26 27 774
26 28 337
26 29 735
26 30 554
26 31 1110
26 32 71
26 33 814
26 34 568
26 35 688
26 36 538
26 37 536
26 38 549
26 39 919
26 40 587
26 41 579
26 42 278
26 43 446
26 44 169
26 45 465
26 46 183
26 47 620
26 48 792
26 49 371
26 50 794
27 28 554
27 29 327
27 30 377
27 31 769
27 32 843
27 33 152
27 34 912
27 35 383
27 36 946
27 37 903
27 38 320
27 39 554
27 40 913
27 41 329
27 42 926
27 43 329
27 44 850
27 45 309
27 46 812
27 47 170
27 48 471
27 49 597
27 50 1124
28 29 415
28 30 234
28 31 774
28 32 382
28 33 541
28 34 407
28 35 358
28 36 420
28 37 388
28 38 254
28 39 581
28 40 416
28 41 271
28 42 381
28 43 265
28 44 328
28 45 283
28 46 281
28 47 384
28 48 456
28 49 67
28 50 647
29 30 182
29 31 478
29 32 789
29 33 208
29 34 659
29 35 75
29 36 708
29 37 659
29 38 192
29 39 252
29 40 654
29 41 157
29 42 785
29 43 364
29 44 743
29 45 357
29 46 695
29 47 250
29 48 146
29 49 421
29 50 841
30 31 601
30 32 607
30 33 323
30 34 536
30 35 136
30 36 574
30 37 529
30 38 66
30 39 385
30 40 536
30 41 48
30 42 610
30 43 236
30 44 562
30 45 239
30 46 515
30 47 224
30 48 255
30 49 249
30 50 748
31 32 1146
31 33 618
31 34 769
31 35 474
31 36 837
31 37 790
31 38 646
31 39 226
31 40 752
31 41 605
31 42 1052
31 43 829
31 44 1056
31 45 826
31 46 1006
31 47 728
31 48 348
31 49 741
31 50 823
32 33 878
32 34 559
32 35 738
32 36 521
32 37 526
32 38 608
32 39 962
32 40 579
32 41 636
32 42 237
32 43 513
32 44 137
32 45 533
32 46 169
32 47 686
32 48 838
32 49 406
32 50 774
33 34 849
33 35 277
33 36 892
33 37 846
33 38 286
33 39 407
33 40 847
33 41 276
33 42 922
33 43 378
33 44 861
33 45 361
33 46 817
33 47 202
33 48 339
33 49 569
33 50 1044
34 35 584
34 36 68
34 37 33
34 38 592
34 39 675
34 40 21
34 41 584
34 42 358
34 43 668
34 44 424
34 45 685
34 46 390
34 47 750
34 48 600
34 49 342
34 50 242
35 36 633
35 37 584
35 38 172
35 39 252
35 40 579
35 41 131
35 42 719
35 43 354
35 44 683
35 45 352
35 46 634
35 47 276
35 48 125
35 49 357
35 50 768
36 37 50
36 38 626
36 39 738
36 40 87
36 41 622
36 42 307
36 43 686
36 44 384
36 45 703
36 46 356
36 47 781
36 48 658
36 49 360
36 50 255
37 38 583
37 39 688
37 40 54
37 41 577
37 42 325
37 43 651
37 44 391
37 45 668
37 46 358
37 47 739
37 48 608
37 49 325
37 50 267
38 39 424
38 40 594
38 41 40
38 42 635
38 43 183
38 44 578
38 45 181
38 46 533
38 47 160
38 48 297
38 49 284
38 50 809
39 40 663
39 41 383
39 42 902
39 43 606
39 44 887
39 45 602
39 46 837
39 47 502
39 48 129
39 49 560
39 50 794
40 41 584
40 42 380
40 43 676
40 44 444
40 45 691
40 46 410
40 47 752
40 48 591
40 49 351
40 50 230
41 42 651
41 43 223
41 44 598
41 45 221
41 46 552
41 47 180
41 48 257
41 49 293
41 50 795
42 43 608
42 44 109
42 45 629
42 46 122
42 47 757
42 48 792
42 49 363
42 50 548
43 44 525
43 45 20
43 46 490
43 47 177
43 48 480
43 49 326
43 50 904
44 45 545
44 46 50
44 47 684
44 48 769
44 49 329
44 50 636
45 46 510
45 47 159
45 48 477
45 49 343
45 50 919
46 47 644
46 48 719
46 49 279
46 50 611
47 48 391
47 49 428
47 50 969
48 49 440
48 50 752
49 50 581
